\ This file has been generated by DOcplex
\ ENCODING=ISO-8859-1
\Problem name: random_problem.lp

Minimize
 obj: 7 x0 - x1 + 8 x2 + 2 x3 - 4 x4 + 10 x5 + 10 x6 + 10 x7 + 10 x8 - 10 x9
      + 6 x10 + 8 x11 + 7 x12 + 8 x13 - 2 x14 - 4 x15 - 3 x17 + 4 x18 + 8 x19
      + 8 x20 + 5 x21 + 8 x23 - 4 x24 + 2 x25 - 7 x27 - 6 x28 - 8 x29 - 10 x30
      + 4 x31 + 8 x32 + 5 x33 - 7 x34 - 9 x35 + 4 x36 - 6 x37 - 2 x38 - 2 x39
      - 10 x40 + 4 x41 - 2 x42 + 8 x43 - 4 x44 - 7 x45 + x46 + 4 x47 - 3 x48
      - x49 - 4 x50 + 4 x51 + 8 x52 + 2 x54 + 9 x55 + 4 x56 - 7 x57 - 10 x58
      + 9 x59 - 5 x60 - 6 x61 + 9 x62 + 6 x63 + 9 x64 + 2 x65 + 2 x66 + 8 x67
      - 3 x68 + 4 x69 + x70 - 5 x71 + 8 x72 - 9 x73 + x74 + [ 18 x0*x14
      - 4 x0*x17 + 16 x0*x22 - 16 x0*x30 + 8 x0*x47 + 4 x0*x48 + 4 x0*x51
      + 2 x0*x53 + 18 x0*x67 - 12 x0*x74 - 12 x1*x12 + 8 x1*x23 - 18 x1*x25
      + 18 x1*x28 - 12 x1*x29 + 10 x1*x30 + 12 x1*x50 + 4 x1*x52 + 16 x1*x60
      - 14 x1*x64 + 18 x2*x6 - 14 x2*x10 + 16 x2*x15 - 14 x2*x26 + 8 x2*x27
      - 16 x2*x33 + 2 x2*x43 - 12 x2*x52 + 10 x2*x53 + 18 x2*x63 - 18 x3*x7
      - 6 x3*x10 + 4 x3*x18 - 6 x3*x29 + 10 x3*x49 - 18 x3*x50 + 10 x3*x57
      - 10 x3*x60 + 12 x3*x70 - 4 x3*x72 + 16 x4*x5 + 6 x4*x7 + 16 x4*x22
      + 20 x4*x24 - 18 x4*x39 + 16 x4*x54 - 4 x4*x57 - 18 x4*x64 - 8 x4*x70
      - 20 x4*x73 - 4 x5*x10 - 14 x5*x12 + 14 x5*x14 + 10 x5*x34 - 10 x5*x36
      - 2 x5*x50 + 6 x5*x58 + 18 x5*x62 - 18 x5*x69 - 20 x6*x15 - 2 x6*x18
      - 4 x6*x19 - 8 x6*x41 - 16 x6*x42 + 16 x6*x46 - 10 x6*x53 + 18 x6*x59
      - 12 x6*x63 + 16 x7*x9 + 14 x7*x17 - 6 x7*x24 + 8 x7*x34 + 12 x7*x35
      + 4 x7*x36 - 12 x7*x67 - 8 x7*x72 - 20 x8*x9 + 4 x8*x10 - 20 x8*x21
      - 20 x8*x32 + 6 x8*x33 - 20 x8*x35 + 16 x8*x56 - 4 x8*x65 - 6 x8*x67
      - 14 x8*x74 + 18 x9*x14 - 2 x9*x18 - 10 x9*x26 - 14 x9*x30 - 10 x9*x38
      - 12 x9*x44 - 18 x9*x50 - 12 x9*x65 + 20 x10*x11 + 10 x10*x20 + 18 x10*x41
      + 18 x10*x58 - 20 x10*x61 - 16 x10*x66 - 18 x11*x16 + 2 x11*x18
      + 12 x11*x20 + 8 x11*x21 - 6 x11*x24 + 18 x11*x26 - 10 x11*x48 + 4 x11*x69
      - 2 x11*x72 + 2 x12*x15 - 4 x12*x46 - 6 x12*x50 + 2 x12*x52 - 10 x12*x56
      + 4 x12*x63 - 14 x12*x69 + 20 x12*x72 - 8 x13*x22 + 10 x13*x30 - 4 x13*x33
      - 20 x13*x49 - 12 x13*x53 - 20 x13*x55 - 20 x13*x57 - 8 x13*x62
      - 16 x13*x66 + 18 x13*x74 + 16 x14*x17 - 16 x14*x28 + 18 x14*x34
      + 4 x14*x37 - 12 x14*x47 + 20 x14*x53 - 10 x14*x58 + 18 x15*x18
      + 16 x15*x19 - 14 x15*x30 - 4 x15*x35 + 6 x15*x41 + 4 x15*x58 + 8 x15*x62
      + 18 x16*x28 - 16 x16*x30 + 12 x16*x36 - 16 x16*x39 + 14 x16*x46
      - 4 x16*x53 - 8 x16*x57 + 12 x16*x61 - 2 x16*x67 + 12 x17*x26 + 4 x17*x43
      - 18 x17*x58 + 10 x17*x60 - 2 x17*x64 - 8 x17*x71 - 14 x17*x73 - 2 x18*x22
      + 14 x18*x31 + 10 x18*x32 - 20 x18*x45 - 14 x18*x58 + 6 x19*x23
      + 18 x19*x32 - 12 x19*x41 - 18 x19*x44 + 4 x19*x54 - 2 x19*x55
      + 14 x19*x58 - 16 x19*x71 + 12 x20*x21 + 2 x20*x25 + 18 x20*x35
      - 8 x20*x51 - 4 x20*x60 - 6 x20*x62 - 12 x20*x70 - 6 x20*x71 + 6 x21*x26
      - 12 x21*x27 - 18 x21*x32 - 18 x21*x38 + 8 x21*x56 - 20 x21*x66
      - 8 x21*x68 - 18 x22*x29 - 4 x22*x37 - 2 x22*x42 - 16 x22*x62 + 6 x22*x69
      + 6 x22*x70 - 12 x23*x30 + 6 x23*x31 - 6 x23*x38 + 8 x23*x41 + 12 x23*x48
      - 10 x23*x50 + 8 x23*x53 - 8 x23*x59 + 4 x24*x32 - 4 x24*x41 + 16 x24*x42
      - 16 x24*x49 - 8 x24*x64 - 2 x24*x70 - 6 x24*x73 + 2 x25*x28 + 16 x25*x30
      - 18 x25*x33 - 10 x25*x39 - 12 x25*x41 - 12 x25*x51 - 16 x25*x52
      - 20 x25*x72 + 4 x26*x35 + 12 x26*x37 + 14 x26*x40 - 20 x26*x45
      + 16 x26*x46 - 14 x27*x34 + 12 x27*x35 - 16 x27*x38 - 20 x27*x55
      - 16 x27*x57 - 2 x27*x60 + 12 x27*x64 - 12 x27*x65 + 10 x28*x35
      + 10 x28*x39 + 16 x28*x41 + 6 x28*x44 + 18 x28*x63 - 16 x28*x73
      - 2 x29*x36 + 12 x29*x38 - 6 x29*x46 - 12 x29*x47 - 4 x29*x62 + 14 x29*x65
      + 12 x29*x66 - 10 x30*x46 + 8 x30*x52 + 20 x31*x38 - 6 x31*x40
      - 20 x31*x43 + 8 x31*x54 - 2 x31*x55 + 18 x31*x67 + 12 x31*x72
      - 20 x31*x73 + 6 x32*x35 - 10 x32*x36 - 10 x32*x47 - 16 x32*x70
      + 18 x32*x72 + 6 x33*x36 + 8 x33*x39 - 14 x33*x49 - 12 x33*x51
      + 18 x33*x71 + 8 x33*x74 - 14 x34*x37 - 4 x34*x40 + 14 x34*x45
      - 18 x34*x47 - 16 x34*x59 - 18 x34*x69 - 4 x35*x61 + 20 x35*x62
      + 12 x36*x42 - 14 x36*x48 - 4 x36*x57 + 8 x36*x59 - 20 x37*x41
      + 18 x37*x42 - 16 x37*x50 + 14 x37*x54 - 8 x37*x61 + 18 x37*x70
      + 18 x38*x51 - 18 x38*x52 - 12 x38*x60 - 6 x38*x63 - 6 x39*x42
      - 20 x39*x44 - 20 x39*x47 - 14 x39*x51 + 12 x39*x71 + 20 x40*x43
      - 16 x40*x44 - 6 x40*x48 - 18 x40*x52 + 20 x40*x57 - 20 x40*x61
      - 14 x40*x66 + 2 x41*x65 + 12 x42*x47 + 14 x42*x51 + 20 x42*x63
      - 8 x42*x68 + 6 x43*x44 + 12 x43*x45 - 4 x43*x53 - 12 x43*x59 - 14 x43*x61
      - 8 x43*x68 + 8 x44*x45 - 18 x44*x59 - 20 x44*x71 - 16 x44*x74 - 4 x45*x48
      - 6 x45*x56 + 10 x45*x66 - 10 x45*x71 + 2 x45*x73 - 16 x46*x56 + 2 x46*x60
      - 8 x46*x68 - 20 x46*x73 - 14 x47*x49 - 8 x47*x53 + 8 x47*x55 - 6 x48*x51
      + 18 x48*x55 + 6 x48*x73 + 14 x48*x74 - 2 x49*x54 - 2 x49*x61 + 4 x49*x67
      + 8 x49*x69 + 20 x49*x70 + 16 x50*x56 - 14 x50*x57 - 6 x50*x59 + 2 x51*x61
      - 18 x51*x68 - 16 x52*x58 + 2 x52*x68 + 8 x52*x71 - 4 x53*x68 - 2 x54*x55
      + 12 x54*x56 - 20 x54*x60 - 6 x54*x67 + 20 x54*x71 + 12 x55*x56
      - 4 x55*x71 - 14 x55*x74 + 14 x56*x61 + 16 x56*x74 - 16 x57*x59
      + 10 x57*x64 + 12 x58*x68 + 16 x58*x74 + 18 x59*x62 + 8 x59*x64
      - 20 x60*x64 - 6 x60*x70 - 18 x61*x62 - 16 x62*x64 - 2 x63*x65
      + 12 x63*x67 + 6 x63*x69 - 16 x63*x72 + 8 x64*x67 + 20 x65*x68
      - 10 x65*x72 - 20 x65*x73 + 10 x65*x74 - 20 x66*x69 - 8 x66*x70
      + 18 x66*x72 + 20 x66*x73 - 2 x67*x69 + 18 x68*x69 ]/2
Subject To
 c0: 2 x4 - x8 + 2 x27 - 2 x33 + x43 + x56 + x59 - x65 - 2 x69 - 2 x71 = 0
 c1: 2 x0 - x27 + 2 x34 - 2 x43 - 2 x44 + x58 + x64 - x70 - 2 x72 - x73 = 1
 c2: 2 x0 + 2 x4 - x14 + 2 x27 - x30 + x34 - 2 x51 - x60 - x65 - x67 = -2
 c3: - 2 x1 - 2 x2 - x6 + 2 x7 + 2 x9 - x15 - x20 - 2 x24 - x25 - 2 x59 = -1
 c4: - x12 + x15 + 2 x22 + 2 x32 - 2 x36 - 2 x38 + x56 + 2 x62 - x65 + x74 = -1
 c5: - x9 + 2 x23 + 2 x32 + 2 x37 - x42 - 2 x52 - x56 - x62 - 2 x68 - 2 x70 = 0
 c6: x2 - 2 x21 + x23 - x26 - 2 x33 - 2 x45 - 2 x55 - 2 x62 - x65 + x72 = -2
 c7: - 2 x2 + 2 x31 + x40 - x41 - x46 - 2 x48 - x50 + 2 x56 + 2 x58 - x73 = 0
 c8: x6 + 2 x20 + 2 x26 - x28 - 2 x34 + x35 - x50 - x53 - x56 + 2 x71 = -1
 c9: - x19 - 2 x20 - 2 x30 - 2 x34 - x41 - 2 x50 + 2 x54 + x56 + x59 + 2 x62 = 
     -2
 c10: x7 - x12 + 2 x14 - x20 + x22 + 2 x26 + x42 + x46 - 2 x58 + x68 = 0
 c11: - 2 x5 - x11 - 2 x16 - 2 x33 - 2 x34 + x46 + 2 x47 - x58 + x61 + x70 = -1
 c12: 2 x1 + x2 + 2 x3 - 2 x9 + 2 x21 + x36 - x37 - 2 x48 + 2 x55 + 2 x74 = -1
 c13: 2 x25 - x28 - x31 + 2 x39 - x45 + 2 x51 + x56 - x60 - 2 x65 - 2 x70 = 1
 c14: - x6 - 2 x18 - x19 + 2 x27 - x32 - x42 - 2 x46 + 2 x47 - 2 x50 - x63 = 1

Bounds
 0 <= x0 <= 1
 0 <= x1 <= 1
 0 <= x2 <= 1
 0 <= x3 <= 1
 0 <= x4 <= 1
 0 <= x5 <= 1
 0 <= x6 <= 1
 0 <= x7 <= 1
 0 <= x8 <= 1
 0 <= x9 <= 1
 0 <= x10 <= 1
 0 <= x11 <= 1
 0 <= x12 <= 1
 0 <= x13 <= 1
 0 <= x14 <= 1
 0 <= x15 <= 1
 0 <= x16 <= 1
 0 <= x17 <= 1
 0 <= x18 <= 1
 0 <= x19 <= 1
 0 <= x20 <= 1
 0 <= x21 <= 1
 0 <= x22 <= 1
 0 <= x23 <= 1
 0 <= x24 <= 1
 0 <= x25 <= 1
 0 <= x26 <= 1
 0 <= x27 <= 1
 0 <= x28 <= 1
 0 <= x29 <= 1
 0 <= x30 <= 1
 0 <= x31 <= 1
 0 <= x32 <= 1
 0 <= x33 <= 1
 0 <= x34 <= 1
 0 <= x35 <= 1
 0 <= x36 <= 1
 0 <= x37 <= 1
 0 <= x38 <= 1
 0 <= x39 <= 1
 0 <= x40 <= 1
 0 <= x41 <= 1
 0 <= x42 <= 1
 0 <= x43 <= 1
 0 <= x44 <= 1
 0 <= x45 <= 1
 0 <= x46 <= 1
 0 <= x47 <= 1
 0 <= x48 <= 1
 0 <= x49 <= 1
 0 <= x50 <= 1
 0 <= x51 <= 1
 0 <= x52 <= 1
 0 <= x53 <= 1
 0 <= x54 <= 1
 0 <= x55 <= 1
 0 <= x56 <= 1
 0 <= x57 <= 1
 0 <= x58 <= 1
 0 <= x59 <= 1
 0 <= x60 <= 1
 0 <= x61 <= 1
 0 <= x62 <= 1
 0 <= x63 <= 1
 0 <= x64 <= 1
 0 <= x65 <= 1
 0 <= x66 <= 1
 0 <= x67 <= 1
 0 <= x68 <= 1
 0 <= x69 <= 1
 0 <= x70 <= 1
 0 <= x71 <= 1
 0 <= x72 <= 1
 0 <= x73 <= 1
 0 <= x74 <= 1

Binaries
 x0 x1 x2 x3 x4 x5 x6 x7 x8 x9 x10 x11 x12 x13 x14 x15 x16 x17 x18 x19 x20 x21
 x22 x23 x24 x25 x26 x27 x28 x29 x30 x31 x32 x33 x34 x35 x36 x37 x38 x39 x40 x41
 x42 x43 x44 x45 x46 x47 x48 x49 x50 x51 x52 x53 x54 x55 x56 x57 x58 x59 x60 x61
 x62 x63 x64 x65 x66 x67 x68 x69 x70 x71 x72 x73 x74
End
